c This graph is produced by Sof A. Lee
c Experiment on graph colouring using phase coupled oscillators
c Date: 15/02/2008 8:25:09 PM
p edge 256 512
e 1 32
e 1 225
e 1 2
e 1 33
e 2 226
e 2 3
e 2 34
e 3 227
e 3 4
e 3 35
e 4 228
e 4 5
e 4 36
e 5 229
e 5 6
e 5 37
e 6 230
e 6 7
e 6 38
e 7 231
e 7 8
e 7 39
e 8 232
e 8 9
e 8 40
e 9 233
e 9 10
e 9 41
e 10 234
e 10 11
e 10 42
e 11 235
e 11 12
e 11 43
e 12 236
e 12 13
e 12 44
e 13 237
e 13 14
e 13 45
e 14 238
e 14 15
e 14 46
e 15 239
e 15 16
e 15 47
e 16 240
e 16 17
e 16 48
e 17 241
e 17 18
e 17 49
e 18 242
e 18 19
e 18 50
e 19 243
e 19 20
e 19 51
e 20 244
e 20 21
e 20 52
e 21 245
e 21 22
e 21 53
e 22 246
e 22 23
e 22 54
e 23 247
e 23 24
e 23 55
e 24 248
e 24 25
e 24 56
e 25 249
e 25 26
e 25 57
e 26 250
e 26 27
e 26 58
e 27 251
e 27 28
e 27 59
e 28 252
e 28 29
e 28 60
e 29 253
e 29 30
e 29 61
e 30 254
e 30 31
e 30 62
e 31 255
e 31 32
e 31 63
e 32 256
e 32 64
e 33 64
e 33 34
e 33 65
e 34 35
e 34 66
e 35 36
e 35 67
e 36 37
e 36 68
e 37 38
e 37 69
e 38 39
e 38 70
e 39 40
e 39 71
e 40 41
e 40 72
e 41 42
e 41 73
e 42 43
e 42 74
e 43 44
e 43 75
e 44 45
e 44 76
e 45 46
e 45 77
e 46 47
e 46 78
e 47 48
e 47 79
e 48 49
e 48 80
e 49 50
e 49 81
e 50 51
e 50 82
e 51 52
e 51 83
e 52 53
e 52 84
e 53 54
e 53 85
e 54 55
e 54 86
e 55 56
e 55 87
e 56 57
e 56 88
e 57 58
e 57 89
e 58 59
e 58 90
e 59 60
e 59 91
e 60 61
e 60 92
e 61 62
e 61 93
e 62 63
e 62 94
e 63 64
e 63 95
e 64 96
e 65 96
e 65 66
e 65 97
e 66 67
e 66 98
e 67 68
e 67 99
e 68 69
e 68 100
e 69 70
e 69 101
e 70 71
e 70 102
e 71 72
e 71 103
e 72 73
e 72 104
e 73 74
e 73 105
e 74 75
e 74 106
e 75 76
e 75 107
e 76 77
e 76 108
e 77 78
e 77 109
e 78 79
e 78 110
e 79 80
e 79 111
e 80 81
e 80 112
e 81 82
e 81 113
e 82 83
e 82 114
e 83 84
e 83 115
e 84 85
e 84 116
e 85 86
e 85 117
e 86 87
e 86 118
e 87 88
e 87 119
e 88 89
e 88 120
e 89 90
e 89 121
e 90 91
e 90 122
e 91 92
e 91 123
e 92 93
e 92 124
e 93 94
e 93 125
e 94 95
e 94 126
e 95 96
e 95 127
e 96 128
e 97 128
e 97 98
e 97 129
e 98 99
e 98 130
e 99 100
e 99 131
e 100 101
e 100 132
e 101 102
e 101 133
e 102 103
e 102 134
e 103 104
e 103 135
e 104 105
e 104 136
e 105 106
e 105 137
e 106 107
e 106 138
e 107 108
e 107 139
e 108 109
e 108 140
e 109 110
e 109 141
e 110 111
e 110 142
e 111 112
e 111 143
e 112 113
e 112 144
e 113 114
e 113 145
e 114 115
e 114 146
e 115 116
e 115 147
e 116 117
e 116 148
e 117 118
e 117 149
e 118 119
e 118 150
e 119 120
e 119 151
e 120 121
e 120 152
e 121 122
e 121 153
e 122 123
e 122 154
e 123 124
e 123 155
e 124 125
e 124 156
e 125 126
e 125 157
e 126 127
e 126 158
e 127 128
e 127 159
e 128 160
e 129 160
e 129 130
e 129 161
e 130 131
e 130 162
e 131 132
e 131 163
e 132 133
e 132 164
e 133 134
e 133 165
e 134 135
e 134 166
e 135 136
e 135 167
e 136 137
e 136 168
e 137 138
e 137 169
e 138 139
e 138 170
e 139 140
e 139 171
e 140 141
e 140 172
e 141 142
e 141 173
e 142 143
e 142 174
e 143 144
e 143 175
e 144 145
e 144 176
e 145 146
e 145 177
e 146 147
e 146 178
e 147 148
e 147 179
e 148 149
e 148 180
e 149 150
e 149 181
e 150 151
e 150 182
e 151 152
e 151 183
e 152 153
e 152 184
e 153 154
e 153 185
e 154 155
e 154 186
e 155 156
e 155 187
e 156 157
e 156 188
e 157 158
e 157 189
e 158 159
e 158 190
e 159 160
e 159 191
e 160 192
e 161 192
e 161 162
e 161 193
e 162 163
e 162 194
e 163 164
e 163 195
e 164 165
e 164 196
e 165 166
e 165 197
e 166 167
e 166 198
e 167 168
e 167 199
e 168 169
e 168 200
e 169 170
e 169 201
e 170 171
e 170 202
e 171 172
e 171 203
e 172 173
e 172 204
e 173 174
e 173 205
e 174 175
e 174 206
e 175 176
e 175 207
e 176 177
e 176 208
e 177 178
e 177 209
e 178 179
e 178 210
e 179 180
e 179 211
e 180 181
e 180 212
e 181 182
e 181 213
e 182 183
e 182 214
e 183 184
e 183 215
e 184 185
e 184 216
e 185 186
e 185 217
e 186 187
e 186 218
e 187 188
e 187 219
e 188 189
e 188 220
e 189 190
e 189 221
e 190 191
e 190 222
e 191 192
e 191 223
e 192 224
e 193 224
e 193 194
e 193 225
e 194 195
e 194 226
e 195 196
e 195 227
e 196 197
e 196 228
e 197 198
e 197 229
e 198 199
e 198 230
e 199 200
e 199 231
e 200 201
e 200 232
e 201 202
e 201 233
e 202 203
e 202 234
e 203 204
e 203 235
e 204 205
e 204 236
e 205 206
e 205 237
e 206 207
e 206 238
e 207 208
e 207 239
e 208 209
e 208 240
e 209 210
e 209 241
e 210 211
e 210 242
e 211 212
e 211 243
e 212 213
e 212 244
e 213 214
e 213 245
e 214 215
e 214 246
e 215 216
e 215 247
e 216 217
e 216 248
e 217 218
e 217 249
e 218 219
e 218 250
e 219 220
e 219 251
e 220 221
e 220 252
e 221 222
e 221 253
e 222 223
e 222 254
e 223 224
e 223 255
e 224 256
e 225 256
e 225 226
e 226 227
e 227 228
e 228 229
e 229 230
e 230 231
e 231 232
e 232 233
e 233 234
e 234 235
e 235 236
e 236 237
e 237 238
e 238 239
e 239 240
e 240 241
e 241 242
e 242 243
e 243 244
e 244 245
e 245 246
e 246 247
e 247 248
e 248 249
e 249 250
e 250 251
e 251 252
e 252 253
e 253 254
e 254 255
e 255 256
